p tw 43 48
1 2
2 13
3 4
3 31
4 5
5 6
5 14
6 7
7 8
7 22
8 9
9 10
9 27
10 11
11 12
11 18
12 34
13 24
14 15
15 16
16 17
17 37
18 19
19 20
20 21
21 37
22 23
23 25
24 35
25 26
26 37
27 28
28 29
29 30
30 37
31 32
32 33
33 37
34 36
35 39
36 37
37 38
39 40
40 41
40 42
41 42
42 43
43 3
